peakDumbCharging = 7400; 
Machine = anon_enum(16); 
machineSpeed = [3700,3700,3700,3700,3700,3700,3700,3700,3700,3700,3700,3700,3700,3700,3700,3700]; 
machineLoad = [3700,3700,3700,3700,3700,3700,3700,3700,3700,3700,3700,3700,3700,3700,3700,3700]; 
Car = anon_enum(13); 
demandCar = [2520,7200,7360,5760,4960,7680,7280,4640,4240,7840,5160,3600,9920]; 
arrivalCar = [80,74,73,70,68,62,58,57,55,53,49,44,40]; 
departureCar = [82,77,76,72,71,66,61,60,58,56,52,46,44]; 
